; benchmark generated from python API
(set-info :status unknown)
(declare-fun strlen_85_64 () (_ BitVec 64))
(declare-fun args_1_8 () (_ BitVec 8))
(declare-fun strlen_83_64 () (_ BitVec 64))
(declare-fun strncmp_ret_84_32 () (_ BitVec 32))
(declare-fun strncmp_ret_86_32 () (_ BitVec 32))
(declare-fun filesize_file_0_/proc/self/loginuid_88_64 () (_ BitVec 64))
(declare-fun syscall_stub_ioctl_95_32 () (_ BitVec 32))
(declare-fun syscall_stub_newfstatat_125_64 () (_ BitVec 64))
(declare-fun syscall_stub_readlink_161_64 () (_ BitVec 64))
(declare-fun strlen_1003_64 () (_ BitVec 64))
(declare-fun mem_7fffffffffef420_175_64 () (_ BitVec 64))
(declare-fun syscall_stub_newfstatat_224_64 () (_ BitVec 64))
(declare-fun mem_7fffffffffef038_301_64 () (_ BitVec 64))
(declare-fun mem_7fffffffffeefa8_302_64 () (_ BitVec 64))
(declare-fun mem_7fffffffffeefa0_350_64 () (_ BitVec 64))
(declare-fun mem_7fffffffffef030_351_64 () (_ BitVec 64))
(declare-fun mem_7fffffffffef048_402_32 () (_ BitVec 32))
(declare-fun mem_7fffffffffeefc8_439_64 () (_ BitVec 64))
(declare-fun mem_7fffffffffef058_440_64 () (_ BitVec 64))
(declare-fun access_2311_32 () (_ BitVec 32))
(declare-fun access_3260_32 () (_ BitVec 32))
(declare-fun mem_2c_5351_264 () (_ BitVec 264))
(declare-fun strlen_5352_64 () (_ BitVec 64))
(declare-fun strlen_8296_64 () (_ BitVec 64))
(declare-fun strlen_10105_64 () (_ BitVec 64))
(declare-fun mem_7fffffffffef740_6459_248 () (_ BitVec 248))
(assert
 (let ((?x751 (bvadd (_ bv576460752303357826 64) strlen_85_64)))
 (let (($x69 (= (_ bv0 8) args_1_8)))
 (let ((?x46 (ite $x69 (_ bv576460752303357826 64) (_ bv576460752303357827 64))))
 (= ?x46 ?x751)))))
(assert
 (let ((?x101 (bvadd (_ bv576460752303357826 64) strlen_83_64)))
 (let (($x69 (= (_ bv0 8) args_1_8)))
 (let ((?x46 (ite $x69 (_ bv576460752303357826 64) (_ bv576460752303357827 64))))
 (= ?x46 ?x101)))))
(assert
 (let (($x104 (bvule (_ bv2 64) strlen_83_64)))
 (let (($x48 (= (_ bv2 64) strlen_83_64)))
 (let (($x122 (or $x48 $x104)))
 (let (($x123 (not $x122)))
 (let (($x57 (= (_ bv45 8) args_1_8)))
 (let (($x121 (not $x57)))
 (or $x121 $x123))))))))
(assert
 (= (_ bv1 32) strncmp_ret_84_32))
(assert
 (= (_ bv1 32) strncmp_ret_86_32))
(assert
 true)
(assert
 (let (($x1210 (bvsge (_ bv0 64) filesize_file_0_/proc/self/loginuid_88_64)))
 (let ((?x1217 (ite $x1210 (_ bv0 64) filesize_file_0_/proc/self/loginuid_88_64)))
 (let ((?x1236 ((_ extract 3 0) filesize_file_0_/proc/self/loginuid_88_64)))
 (let ((?x99 (ite $x1210 (_ bv0 4) ?x1236)))
 (let (($x1110 (bvule ?x99 (_ bv12 4))))
 (let ((?x1229 ((_ extract 63 4) filesize_file_0_/proc/self/loginuid_88_64)))
 (let (($x523 (= (_ bv0 60) ?x1229)))
 (let (($x516 (or $x1210 $x523)))
 (let (($x975 (and $x516 $x1110)))
 (let ((?x1169 (ite $x975 ?x1217 (_ bv12 64))))
 (= (_ bv12 64) ?x1169))))))))))))
(assert
 (let ((?x47778 ((_ extract 31 31) syscall_stub_ioctl_95_32)))
 (= (_ bv0 1) ?x47778)))
(assert
 (let (($x2449 (= (_ bv0 32) syscall_stub_ioctl_95_32)))
 (not $x2449)))
(assert
 (let ((?x68076 ((_ extract 31 0) syscall_stub_newfstatat_125_64)))
 (bvule ?x68076 (_ bv4294963200 32))))
(assert
 (= (_ bv13 64) syscall_stub_readlink_161_64))
(assert
 (let ((?x447355 (bvadd (_ bv576460752303354917 64) strlen_1003_64)))
 (let ((?x117542 ((_ extract 63 56) mem_7fffffffffef420_175_64)))
 (let (($x447349 (= (_ bv0 8) ?x117542)))
 (let ((?x115492 (ite $x447349 (_ bv576460752303354919 64) (_ bv576460752303354920 64))))
 (let ((?x117627 ((_ extract 55 48) mem_7fffffffffef420_175_64)))
 (let (($x446785 (= (_ bv0 8) ?x117627)))
 (let ((?x115455 (ite $x446785 (_ bv576460752303354918 64) ?x115492)))
 (let ((?x117606 ((_ extract 47 40) mem_7fffffffffef420_175_64)))
 (let (($x447312 (= (_ bv0 8) ?x117606)))
 (let ((?x115314 (ite $x447312 (_ bv576460752303354917 64) ?x115455)))
 (= ?x115314 ?x447355))))))))))))
(assert
 (let ((?x114646 ((_ extract 7 0) mem_7fffffffffef420_175_64)))
 (= (_ bv47 8) ?x114646)))
(assert
 (let ((?x449421 (bvadd (_ bv1 64) strlen_1003_64)))
 (let ((?x449847 ((_ extract 63 3) ?x449421)))
 (= (_ bv0 61) ?x449847))))
(assert
 (let ((?x449531 ((_ extract 2 0) strlen_1003_64)))
 (let ((?x449955 (bvadd (_ bv1 3) ?x449531)))
 (bvule ?x449955 (_ bv4 3)))))
(assert
 (let ((?x449421 (bvadd (_ bv1 64) strlen_1003_64)))
 (let (($x449083 (bvule (_ bv31 64) strlen_1003_64)))
 (let (($x449398 (bvule strlen_1003_64 (_ bv18446744073709551614 64))))
 (let (($x449830 (and $x449398 $x449083)))
 (let ((?x449914 (ite $x449830 (_ bv32 64) ?x449421)))
 (bvule (_ bv1 64) ?x449914)))))))
(assert
 (let (($x449083 (bvule (_ bv31 64) strlen_1003_64)))
 (let (($x449560 (not $x449083)))
 (let (($x449398 (bvule strlen_1003_64 (_ bv18446744073709551614 64))))
 (let (($x449556 (not $x449398)))
 (or $x449556 $x449560))))))
(assert
 (let ((?x120032 ((_ extract 31 0) syscall_stub_newfstatat_224_64)))
 (bvule ?x120032 (_ bv4294963200 32))))
(assert
 (= mem_7fffffffffeefa8_302_64 mem_7fffffffffef038_301_64))
(assert
 (= mem_7fffffffffef030_351_64 mem_7fffffffffeefa0_350_64))
(assert
 (let ((?x274831 ((_ extract 15 12) mem_7fffffffffef048_402_32)))
 (= (_ bv2 4) ?x274831)))
(assert
 (= mem_7fffffffffef058_440_64 mem_7fffffffffeefc8_439_64))
(assert
 (= (_ bv4294967295 32) access_2311_32))
(assert
 (= (_ bv0 32) access_3260_32))
(assert
 (let ((?x1288472 ((_ extract 23 16) mem_2c_5351_264)))
 (let (($x1288462 (= (_ bv0 8) ?x1288472)))
 (not $x1288462))))
(assert
 (let ((?x1288492 ((_ extract 15 8) mem_2c_5351_264)))
 (= (_ bv0 8) ?x1288492)))
(assert
 (let ((?x1288452 ((_ extract 31 24) mem_2c_5351_264)))
 (let (($x1288442 (= (_ bv0 8) ?x1288452)))
 (not $x1288442))))
(assert
 (let ((?x1288422 ((_ extract 39 32) mem_2c_5351_264)))
 (let (($x1288402 (= (_ bv0 8) ?x1288422)))
 (not $x1288402))))
(assert
 (let ((?x1288392 ((_ extract 47 40) mem_2c_5351_264)))
 (let (($x1288382 (= (_ bv0 8) ?x1288392)))
 (not $x1288382))))
(assert
 (let ((?x1288372 ((_ extract 55 48) mem_2c_5351_264)))
 (let (($x1288362 (= (_ bv0 8) ?x1288372)))
 (not $x1288362))))
(assert
 (let ((?x1288352 ((_ extract 63 56) mem_2c_5351_264)))
 (let (($x1284978 (= (_ bv0 8) ?x1288352)))
 (not $x1284978))))
(assert
 (let ((?x1284956 ((_ extract 71 64) mem_2c_5351_264)))
 (let (($x1290422 (= (_ bv0 8) ?x1284956)))
 (not $x1290422))))
(assert
 (let ((?x1290421 ((_ extract 79 72) mem_2c_5351_264)))
 (let (($x1290420 (= (_ bv0 8) ?x1290421)))
 (not $x1290420))))
(assert
 (let ((?x1290419 ((_ extract 87 80) mem_2c_5351_264)))
 (let (($x1290418 (= (_ bv0 8) ?x1290419)))
 (not $x1290418))))
(assert
 (let ((?x1290416 ((_ extract 95 88) mem_2c_5351_264)))
 (let (($x1290415 (= (_ bv0 8) ?x1290416)))
 (not $x1290415))))
(assert
 (let ((?x1290414 ((_ extract 103 96) mem_2c_5351_264)))
 (let (($x1290413 (= (_ bv0 8) ?x1290414)))
 (not $x1290413))))
(assert
 (let ((?x1290412 ((_ extract 111 104) mem_2c_5351_264)))
 (let (($x1290411 (= (_ bv0 8) ?x1290412)))
 (not $x1290411))))
(assert
 (let ((?x1290410 ((_ extract 119 112) mem_2c_5351_264)))
 (let (($x1290409 (= (_ bv0 8) ?x1290410)))
 (not $x1290409))))
(assert
 (let ((?x1290408 ((_ extract 127 120) mem_2c_5351_264)))
 (let (($x1290406 (= (_ bv0 8) ?x1290408)))
 (not $x1290406))))
(assert
 (let ((?x1290405 ((_ extract 135 128) mem_2c_5351_264)))
 (let (($x1290404 (= (_ bv0 8) ?x1290405)))
 (not $x1290404))))
(assert
 (let ((?x1290403 ((_ extract 143 136) mem_2c_5351_264)))
 (let (($x1290402 (= (_ bv0 8) ?x1290403)))
 (not $x1290402))))
(assert
 (let ((?x1290401 ((_ extract 151 144) mem_2c_5351_264)))
 (let (($x1290400 (= (_ bv0 8) ?x1290401)))
 (not $x1290400))))
(assert
 (let ((?x1290399 ((_ extract 159 152) mem_2c_5351_264)))
 (let (($x1290398 (= (_ bv0 8) ?x1290399)))
 (not $x1290398))))
(assert
 (let ((?x1290396 ((_ extract 167 160) mem_2c_5351_264)))
 (let (($x1290395 (= (_ bv0 8) ?x1290396)))
 (not $x1290395))))
(assert
 (let ((?x1290394 ((_ extract 175 168) mem_2c_5351_264)))
 (let (($x1290393 (= (_ bv0 8) ?x1290394)))
 (not $x1290393))))
(assert
 (let ((?x1290392 ((_ extract 183 176) mem_2c_5351_264)))
 (let (($x1290391 (= (_ bv0 8) ?x1290392)))
 (not $x1290391))))
(assert
 (let ((?x1290390 ((_ extract 191 184) mem_2c_5351_264)))
 (let (($x1290389 (= (_ bv0 8) ?x1290390)))
 (not $x1290389))))
(assert
 (let ((?x1290388 ((_ extract 199 192) mem_2c_5351_264)))
 (let (($x1290386 (= (_ bv0 8) ?x1290388)))
 (not $x1290386))))
(assert
 (let ((?x1290385 ((_ extract 207 200) mem_2c_5351_264)))
 (let (($x1290384 (= (_ bv0 8) ?x1290385)))
 (not $x1290384))))
(assert
 (let ((?x1290383 ((_ extract 215 208) mem_2c_5351_264)))
 (let (($x1290382 (= (_ bv0 8) ?x1290383)))
 (not $x1290382))))
(assert
 (let ((?x1290381 ((_ extract 223 216) mem_2c_5351_264)))
 (let (($x1290380 (= (_ bv0 8) ?x1290381)))
 (not $x1290380))))
(assert
 (let ((?x1290379 ((_ extract 231 224) mem_2c_5351_264)))
 (let (($x1290378 (= (_ bv0 8) ?x1290379)))
 (not $x1290378))))
(assert
 (let ((?x1290376 ((_ extract 239 232) mem_2c_5351_264)))
 (let (($x1290375 (= (_ bv0 8) ?x1290376)))
 (not $x1290375))))
(assert
 (let ((?x1290374 ((_ extract 247 240) mem_2c_5351_264)))
 (let (($x1290373 (= (_ bv0 8) ?x1290374)))
 (not $x1290373))))
(assert
 (let ((?x1290372 ((_ extract 255 248) mem_2c_5351_264)))
 (let (($x1290371 (= (_ bv0 8) ?x1290372)))
 (not $x1290371))))
(assert
 (let ((?x1290369 ((_ extract 263 256) mem_2c_5351_264)))
 (let (($x1290370 (= (_ bv0 8) ?x1290369)))
 (not $x1290370))))
(assert
 (= (_ bv31 64) strlen_5352_64))
(assert
 (= (_ bv31 64) strlen_8296_64))
(assert
 (let ((?x1355128 ((_ extract 7 0) mem_7fffffffffef740_6459_248)))
 (let ((?x1357375 ((_ extract 15 0) mem_7fffffffffef740_6459_248)))
 (let ((?x1354514 ((_ extract 23 0) mem_7fffffffffef740_6459_248)))
 (let ((?x1354441 ((_ extract 31 0) mem_7fffffffffef740_6459_248)))
 (let ((?x1356044 ((_ extract 39 0) mem_7fffffffffef740_6459_248)))
 (let ((?x1356282 ((_ extract 47 0) mem_7fffffffffef740_6459_248)))
 (let ((?x1349971 ((_ extract 55 0) mem_7fffffffffef740_6459_248)))
 (let ((?x1357399 ((_ extract 63 0) mem_7fffffffffef740_6459_248)))
 (let ((?x1354445 ((_ extract 71 0) mem_7fffffffffef740_6459_248)))
 (let ((?x1357143 ((_ extract 79 0) mem_7fffffffffef740_6459_248)))
 (let ((?x1357142 ((_ extract 87 0) mem_7fffffffffef740_6459_248)))
 (let ((?x1330112 ((_ extract 95 0) mem_7fffffffffef740_6459_248)))
 (let ((?x1357141 ((_ extract 103 0) mem_7fffffffffef740_6459_248)))
 (let ((?x1356418 ((_ extract 111 0) mem_7fffffffffef740_6459_248)))
 (let ((?x1355385 ((_ extract 119 0) mem_7fffffffffef740_6459_248)))
 (let ((?x1355545 ((_ extract 127 0) mem_7fffffffffef740_6459_248)))
 (let ((?x1356286 ((_ extract 135 0) mem_7fffffffffef740_6459_248)))
 (let ((?x1350878 ((_ extract 143 0) mem_7fffffffffef740_6459_248)))
 (let ((?x1341254 ((_ extract 151 0) mem_7fffffffffef740_6459_248)))
 (let ((?x1357873 ((_ extract 159 0) mem_7fffffffffef740_6459_248)))
 (let ((?x1356114 ((_ extract 167 0) mem_7fffffffffef740_6459_248)))
 (let ((?x1331001 ((_ extract 175 0) mem_7fffffffffef740_6459_248)))
 (let ((?x1341373 ((_ extract 183 0) mem_7fffffffffef740_6459_248)))
 (let ((?x1343389 ((_ extract 191 0) mem_7fffffffffef740_6459_248)))
 (let ((?x1355170 ((_ extract 199 0) mem_7fffffffffef740_6459_248)))
 (let ((?x1354851 ((_ extract 207 0) mem_7fffffffffef740_6459_248)))
 (let ((?x1356271 ((_ extract 215 0) mem_7fffffffffef740_6459_248)))
 (let ((?x1355477 ((_ extract 223 0) mem_7fffffffffef740_6459_248)))
 (let ((?x1354457 ((_ extract 231 0) mem_7fffffffffef740_6459_248)))
 (let ((?x1358300 ((_ extract 239 0) mem_7fffffffffef740_6459_248)))
 (let ((?x1343939 ((_ extract 263 16) mem_2c_5351_264)))
 (let (($x1344025 (= (_ bv1 64) strlen_5352_64)))
 (let ((?x1354179 (ite $x1344025 ?x1343939 mem_7fffffffffef740_6459_248)))
 (let ((?x1356915 ((_ extract 247 240) ?x1354179)))
 (let ((?x1357176 (concat ?x1356915 ?x1358300)))
 (let (($x1343942 (= (_ bv2 64) strlen_5352_64)))
 (let ((?x1353910 (ite $x1343942 ?x1343939 ?x1357176)))
 (let ((?x1353539 ((_ extract 247 232) ?x1353910)))
 (let ((?x1341708 (concat ?x1353539 ?x1354457)))
 (let (($x1344021 (= (_ bv3 64) strlen_5352_64)))
 (let ((?x1355803 (ite $x1344021 ?x1343939 ?x1341708)))
 (let ((?x1356024 ((_ extract 247 224) ?x1355803)))
 (let ((?x1356972 (concat ?x1356024 ?x1355477)))
 (let (($x1343723 (= (_ bv4 64) strlen_5352_64)))
 (let ((?x1356135 (ite $x1343723 ?x1343939 ?x1356972)))
 (let ((?x1349833 ((_ extract 247 216) ?x1356135)))
 (let ((?x1354967 (concat ?x1349833 ?x1356271)))
 (let (($x1344017 (= (_ bv5 64) strlen_5352_64)))
 (let ((?x1351619 (ite $x1344017 ?x1343939 ?x1354967)))
 (let ((?x1336796 ((_ extract 247 208) ?x1351619)))
 (let ((?x1355461 (concat ?x1336796 ?x1354851)))
 (let (($x1343609 (= (_ bv6 64) strlen_5352_64)))
 (let ((?x1355537 (ite $x1343609 ?x1343939 ?x1355461)))
 (let ((?x1356963 ((_ extract 247 200) ?x1355537)))
 (let ((?x1354632 (concat ?x1356963 ?x1355170)))
 (let (($x1344013 (= (_ bv7 64) strlen_5352_64)))
 (let ((?x1355208 (ite $x1344013 ?x1343939 ?x1354632)))
 (let ((?x497351 ((_ extract 247 192) ?x1355208)))
 (let ((?x1355179 (concat ?x497351 ?x1343389)))
 (let (($x1343749 (= (_ bv8 64) strlen_5352_64)))
 (let ((?x1354935 (ite $x1343749 ?x1343939 ?x1355179)))
 (let ((?x1309408 ((_ extract 247 184) ?x1354935)))
 (let ((?x1357688 (concat ?x1309408 ?x1341373)))
 (let (($x1344009 (= (_ bv9 64) strlen_5352_64)))
 (let ((?x1331091 (ite $x1344009 ?x1343939 ?x1357688)))
 (let ((?x1337082 ((_ extract 247 176) ?x1331091)))
 (let ((?x1356697 (concat ?x1337082 ?x1331001)))
 (let (($x1343595 (= (_ bv10 64) strlen_5352_64)))
 (let ((?x1350919 (ite $x1343595 ?x1343939 ?x1356697)))
 (let ((?x1355456 ((_ extract 247 168) ?x1350919)))
 (let ((?x1351759 (concat ?x1355456 ?x1356114)))
 (let (($x1344005 (= (_ bv11 64) strlen_5352_64)))
 (let ((?x1356236 (ite $x1344005 ?x1343939 ?x1351759)))
 (let ((?x1341560 ((_ extract 247 160) ?x1356236)))
 (let ((?x556594 (concat ?x1341560 ?x1357873)))
 (let (($x1343496 (= (_ bv12 64) strlen_5352_64)))
 (let ((?x1355160 (ite $x1343496 ?x1343939 ?x556594)))
 (let ((?x1354022 ((_ extract 247 152) ?x1355160)))
 (let ((?x1356745 (concat ?x1354022 ?x1341254)))
 (let (($x1343874 (= (_ bv13 64) strlen_5352_64)))
 (let ((?x476622 (ite $x1343874 ?x1343939 ?x1356745)))
 (let ((?x1356440 ((_ extract 247 144) ?x476622)))
 (let ((?x1357228 (concat ?x1356440 ?x1350878)))
 (let (($x1343522 (= (_ bv14 64) strlen_5352_64)))
 (let ((?x1354951 (ite $x1343522 ?x1343939 ?x1357228)))
 (let ((?x1355112 ((_ extract 247 136) ?x1354951)))
 (let ((?x1354349 (concat ?x1355112 ?x1356286)))
 (let (($x1343943 (= (_ bv15 64) strlen_5352_64)))
 (let ((?x1354799 (ite $x1343943 ?x1343939 ?x1354349)))
 (let ((?x1354066 ((_ extract 247 128) ?x1354799)))
 (let ((?x1353069 (concat ?x1354066 ?x1355545)))
 (let (($x1343593 (= (_ bv16 64) strlen_5352_64)))
 (let ((?x1356631 (ite $x1343593 ?x1343939 ?x1353069)))
 (let ((?x1355332 ((_ extract 247 120) ?x1356631)))
 (let ((?x1352833 (concat ?x1355332 ?x1355385)))
 (let (($x1343610 (= (_ bv17 64) strlen_5352_64)))
 (let ((?x1352334 (ite $x1343610 ?x1343939 ?x1352833)))
 (let ((?x1352441 ((_ extract 247 112) ?x1352334)))
 (let ((?x1357226 (concat ?x1352441 ?x1356418)))
 (let (($x1343615 (= (_ bv18 64) strlen_5352_64)))
 (let ((?x1357254 (ite $x1343615 ?x1343939 ?x1357226)))
 (let ((?x1341581 ((_ extract 247 104) ?x1357254)))
 (let ((?x1353149 (concat ?x1341581 ?x1357141)))
 (let (($x1343952 (= (_ bv19 64) strlen_5352_64)))
 (let ((?x1354121 (ite $x1343952 ?x1343939 ?x1353149)))
 (let ((?x1357144 ((_ extract 247 96) ?x1354121)))
 (let ((?x1357818 (concat ?x1357144 ?x1330112)))
 (let (($x1343382 (= (_ bv20 64) strlen_5352_64)))
 (let ((?x1356986 (ite $x1343382 ?x1343939 ?x1357818)))
 (let ((?x1341327 ((_ extract 247 88) ?x1356986)))
 (let ((?x1357284 (concat ?x1341327 ?x1357142)))
 (let (($x1343814 (= (_ bv21 64) strlen_5352_64)))
 (let ((?x1357840 (ite $x1343814 ?x1343939 ?x1357284)))
 (let ((?x1357908 ((_ extract 247 80) ?x1357840)))
 (let ((?x1357279 (concat ?x1357908 ?x1357143)))
 (let (($x1343834 (= (_ bv22 64) strlen_5352_64)))
 (let ((?x1357227 (ite $x1343834 ?x1343939 ?x1357279)))
 (let ((?x1357949 ((_ extract 247 72) ?x1357227)))
 (let ((?x1309363 (concat ?x1357949 ?x1354445)))
 (let (($x1343919 (= (_ bv23 64) strlen_5352_64)))
 (let ((?x1357260 (ite $x1343919 ?x1343939 ?x1309363)))
 (let ((?x1357154 ((_ extract 247 64) ?x1357260)))
 (let ((?x1357483 (concat ?x1357154 ?x1357399)))
 (let (($x1343985 (= (_ bv24 64) strlen_5352_64)))
 (let ((?x1356990 (ite $x1343985 ?x1343939 ?x1357483)))
 (let ((?x1357934 ((_ extract 247 56) ?x1356990)))
 (let ((?x1353342 (concat ?x1357934 ?x1349971)))
 (let (($x1343611 (= (_ bv25 64) strlen_5352_64)))
 (let ((?x1356933 (ite $x1343611 ?x1343939 ?x1353342)))
 (let ((?x1353193 ((_ extract 247 48) ?x1356933)))
 (let ((?x1356685 (concat ?x1353193 ?x1356282)))
 (let (($x1343512 (= (_ bv26 64) strlen_5352_64)))
 (let ((?x1353585 (ite $x1343512 ?x1343939 ?x1356685)))
 (let ((?x1354151 ((_ extract 247 40) ?x1353585)))
 (let ((?x1356410 (concat ?x1354151 ?x1356044)))
 (let (($x1343644 (= (_ bv27 64) strlen_5352_64)))
 (let ((?x1352346 (ite $x1343644 ?x1343939 ?x1356410)))
 (let ((?x1353312 ((_ extract 247 32) ?x1352346)))
 (let ((?x1353805 (concat ?x1353312 ?x1354441)))
 (let (($x1343518 (= (_ bv28 64) strlen_5352_64)))
 (let ((?x1354270 (ite $x1343518 ?x1343939 ?x1353805)))
 (let ((?x1357704 ((_ extract 247 24) ?x1354270)))
 (let ((?x1352204 (concat ?x1357704 ?x1354514)))
 (let (($x1343794 (= (_ bv29 64) strlen_5352_64)))
 (let ((?x1355570 (ite $x1343794 ?x1343939 ?x1352204)))
 (let ((?x1355146 ((_ extract 247 16) ?x1355570)))
 (let ((?x1336973 (concat ?x1355146 ?x1357375)))
 (let (($x1343987 (= (_ bv30 64) strlen_5352_64)))
 (let ((?x1358217 (ite $x1343987 ?x1343939 ?x1336973)))
 (let ((?x1356313 ((_ extract 247 8) ?x1358217)))
 (let ((?x1355489 (concat ?x1356313 ?x1355128)))
 (let (($x1343713 (= (_ bv31 64) strlen_5352_64)))
 (let ((?x1356929 (ite $x1343713 ?x1343939 ?x1355489)))
 (let ((?x1660904 ((_ extract 7 0) ?x1356929)))
 (let (($x1358381 (= (_ bv0 8) ?x1660904)))
 (let ((?x1660778 (ite $x1358381 (_ bv576460752303355742 64) (_ bv576460752303355743 64))))
 (let ((?x1661510 ((_ extract 15 8) ?x1356929)))
 (let (($x1358330 (= (_ bv0 8) ?x1661510)))
 (let ((?x1329224 (ite $x1358330 (_ bv576460752303355741 64) ?x1660778)))
 (let ((?x1661210 ((_ extract 23 16) ?x1356929)))
 (let (($x1358322 (= (_ bv0 8) ?x1661210)))
 (let ((?x1660701 (ite $x1358322 (_ bv576460752303355740 64) ?x1329224)))
 (let ((?x1661462 ((_ extract 31 24) ?x1356929)))
 (let (($x1357957 (= (_ bv0 8) ?x1661462)))
 (let ((?x1329205 (ite $x1357957 (_ bv576460752303355739 64) ?x1660701)))
 (let ((?x1661490 ((_ extract 39 32) ?x1356929)))
 (let (($x1357513 (= (_ bv0 8) ?x1661490)))
 (let ((?x1661258 (ite $x1357513 (_ bv576460752303355738 64) ?x1329205)))
 (let ((?x1660848 ((_ extract 47 40) ?x1356929)))
 (let (($x1357263 (= (_ bv0 8) ?x1660848)))
 (let ((?x1660864 (ite $x1357263 (_ bv576460752303355737 64) ?x1661258)))
 (let ((?x1328840 ((_ extract 55 48) ?x1356929)))
 (let (($x1356764 (= (_ bv0 8) ?x1328840)))
 (let ((?x1661234 (ite $x1356764 (_ bv576460752303355736 64) ?x1660864)))
 (let ((?x1661189 ((_ extract 63 56) ?x1356929)))
 (let (($x1356680 (= (_ bv0 8) ?x1661189)))
 (let ((?x1660776 (ite $x1356680 (_ bv576460752303355735 64) ?x1661234)))
 (let ((?x1661467 ((_ extract 71 64) ?x1356929)))
 (let (($x1356441 (= (_ bv0 8) ?x1661467)))
 (let ((?x1329335 (ite $x1356441 (_ bv576460752303355734 64) ?x1660776)))
 (let ((?x1341750 ((_ extract 79 72) ?x1356929)))
 (let (($x1356434 (= (_ bv0 8) ?x1341750)))
 (let ((?x1660726 (ite $x1356434 (_ bv576460752303355733 64) ?x1329335)))
 (let ((?x1329131 ((_ extract 87 80) ?x1356929)))
 (let (($x1356412 (= (_ bv0 8) ?x1329131)))
 (let ((?x1660709 (ite $x1356412 (_ bv576460752303355732 64) ?x1660726)))
 (let ((?x1660744 ((_ extract 95 88) ?x1356929)))
 (let (($x1356263 (= (_ bv0 8) ?x1660744)))
 (let ((?x1329181 (ite $x1356263 (_ bv576460752303355731 64) ?x1660709)))
 (let ((?x1329207 ((_ extract 103 96) ?x1356929)))
 (let (($x1354898 (= (_ bv0 8) ?x1329207)))
 (let ((?x1661450 (ite $x1354898 (_ bv576460752303355730 64) ?x1329181)))
 (let ((?x1661236 ((_ extract 111 104) ?x1356929)))
 (let (($x1354871 (= (_ bv0 8) ?x1661236)))
 (let ((?x1660886 (ite $x1354871 (_ bv576460752303355729 64) ?x1661450)))
 (let ((?x1329184 ((_ extract 119 112) ?x1356929)))
 (let (($x1354290 (= (_ bv0 8) ?x1329184)))
 (let ((?x1660755 (ite $x1354290 (_ bv576460752303355728 64) ?x1660886)))
 (let ((?x1660803 ((_ extract 127 120) ?x1356929)))
 (let (($x1353784 (= (_ bv0 8) ?x1660803)))
 (let ((?x1329067 (ite $x1353784 (_ bv576460752303355727 64) ?x1660755)))
 (let ((?x1660773 ((_ extract 135 128) ?x1356929)))
 (let (($x1353404 (= (_ bv0 8) ?x1660773)))
 (let ((?x1660705 (ite $x1353404 (_ bv576460752303355726 64) ?x1329067)))
 (let ((?x1661458 ((_ extract 143 136) ?x1356929)))
 (let (($x1353161 (= (_ bv0 8) ?x1661458)))
 (let ((?x1328893 (ite $x1353161 (_ bv576460752303355725 64) ?x1660705)))
 (let ((?x1660866 ((_ extract 151 144) ?x1356929)))
 (let (($x1352229 (= (_ bv0 8) ?x1660866)))
 (let ((?x1660849 (ite $x1352229 (_ bv576460752303355724 64) ?x1328893)))
 (let ((?x1660753 ((_ extract 159 152) ?x1356929)))
 (let (($x1352066 (= (_ bv0 8) ?x1660753)))
 (let ((?x1660805 (ite $x1352066 (_ bv576460752303355723 64) ?x1660849)))
 (let ((?x1660867 ((_ extract 167 160) ?x1356929)))
 (let (($x1342460 (= (_ bv0 8) ?x1660867)))
 (let ((?x1661240 (ite $x1342460 (_ bv576460752303355722 64) ?x1660805)))
 (let ((?x1329225 ((_ extract 175 168) ?x1356929)))
 (let (($x1342404 (= (_ bv0 8) ?x1329225)))
 (let ((?x1660909 (ite $x1342404 (_ bv576460752303355721 64) ?x1661240)))
 (let ((?x1660733 ((_ extract 183 176) ?x1356929)))
 (let (($x1342296 (= (_ bv0 8) ?x1660733)))
 (let ((?x1328929 (ite $x1342296 (_ bv576460752303355720 64) ?x1660909)))
 (let ((?x1329334 ((_ extract 191 184) ?x1356929)))
 (let (($x1342283 (= (_ bv0 8) ?x1329334)))
 (let ((?x1660836 (ite $x1342283 (_ bv576460752303355719 64) ?x1328929)))
 (let ((?x1328926 ((_ extract 199 192) ?x1356929)))
 (let (($x1342279 (= (_ bv0 8) ?x1328926)))
 (let ((?x1660703 (ite $x1342279 (_ bv576460752303355718 64) ?x1660836)))
 (let ((?x1660802 ((_ extract 207 200) ?x1356929)))
 (let (($x1341572 (= (_ bv0 8) ?x1660802)))
 (let ((?x1661509 (ite $x1341572 (_ bv576460752303355717 64) ?x1660703)))
 (let ((?x1328842 ((_ extract 215 208) ?x1356929)))
 (let (($x1341473 (= (_ bv0 8) ?x1328842)))
 (let ((?x1661211 (ite $x1341473 (_ bv576460752303355716 64) ?x1661509)))
 (let ((?x1660734 ((_ extract 223 216) ?x1356929)))
 (let (($x1341298 (= (_ bv0 8) ?x1660734)))
 (let ((?x1660665 (ite $x1341298 (_ bv576460752303355715 64) ?x1661211)))
 (let ((?x1661499 ((_ extract 231 224) ?x1356929)))
 (let (($x821533 (= (_ bv0 8) ?x1661499)))
 (let ((?x1661464 (ite $x821533 (_ bv576460752303355714 64) ?x1660665)))
 (let ((?x1660873 ((_ extract 239 232) ?x1356929)))
 (let (($x480101 (= (_ bv0 8) ?x1660873)))
 (let ((?x1660764 (ite $x480101 (_ bv576460752303355713 64) ?x1661464)))
 (let ((?x1356293 ((_ extract 247 240) ?x1356929)))
 (let (($x1341183 (= (_ bv0 8) ?x1356293)))
 (let ((?x1660860 (ite $x1341183 (_ bv576460752303355712 64) ?x1660764)))
 (let ((?x1661231 (bvsub ?x1660860 (_ bv576460752303355712 64))))
 (= ?x1661231 strlen_10105_64)))))))))))))))))))))))))))))))))))))))))))))))))))))))))))))))))))))))))))))))))))))))))))))))))))))))))))))))))))))))))))))))))))))))))))))))))))))))))))))))))))))))))))))))))))))))))))))))))))))))))))))))))))))))))))))))))))))))))))))))))))))))))
(minimize mem_7fffffffffeefa8_302_64)
(maximize mem_7fffffffffef048_402_32)
(minimize mem_7fffffffffef030_351_64)
(minimize filesize_file_0_/proc/self/loginuid_88_64)
(maximize strlen_8296_64)
(maximize strlen_85_64)
(maximize syscall_stub_readlink_161_64)
(maximize strlen_10105_64)
(minimize mem_7fffffffffef420_175_64)
(maximize access_2311_32)
(minimize strncmp_ret_84_32)
(minimize strlen_1003_64)
(minimize mem_7fffffffffeefc8_439_64)
(maximize strncmp_ret_86_32)
(minimize strlen_5352_64)
(maximize strncmp_ret_84_32)
(minimize syscall_stub_readlink_161_64)
(maximize syscall_stub_newfstatat_125_64)
(maximize strlen_5352_64)
(minimize mem_7fffffffffef740_6459_248)
(minimize syscall_stub_newfstatat_125_64)
(minimize strlen_10105_64)
(minimize mem_7fffffffffeefa0_350_64)
(maximize mem_7fffffffffeefa8_302_64)
(minimize strncmp_ret_86_32)
(minimize mem_7fffffffffef058_440_64)
(minimize args_1_8)
(maximize mem_7fffffffffef058_440_64)
(maximize mem_7fffffffffef420_175_64)
(minimize syscall_stub_newfstatat_224_64)
(minimize mem_2c_5351_264)
(maximize strlen_83_64)
(maximize strlen_1003_64)
(minimize strlen_8296_64)
(maximize mem_7fffffffffef740_6459_248)
(minimize access_2311_32)
(minimize syscall_stub_ioctl_95_32)
(maximize mem_7fffffffffeefc8_439_64)
(minimize mem_7fffffffffef038_301_64)
(maximize mem_7fffffffffef030_351_64)
(minimize strlen_85_64)
(maximize access_3260_32)
(maximize syscall_stub_ioctl_95_32)
(maximize filesize_file_0_/proc/self/loginuid_88_64)
(maximize mem_2c_5351_264)
(maximize args_1_8)
(maximize mem_7fffffffffeefa0_350_64)
(maximize mem_7fffffffffef038_301_64)
(minimize access_3260_32)
(maximize syscall_stub_newfstatat_224_64)
(check-sat)
(get-objectives)
